inputBoard = [
  "XXXXXXXXXX",
  "X>  XO   X",
  "X   X    X",
  "X   X    X",
  "X   X    X",
  "X   X  O X",
  "X   X O!OX",
  "X   X    X",
  "X   X    X",
  "XXXXXXXXXX",  
];
maxTime = 22;
